c turning on binary mode checking
c parsing input formula with 259840 variables and 1039924 clauses
c finished parsing, read 3044251 bytes from proof file
c detected empty clause; start verification via backward checking
c 4444 of 1039924 clauses in core                            
c 1466 of 120728 lemmas in core using 53299 resolution steps
c 0 RAT lemmas in core; 264 redundant literals in core lemmas
s VERIFIED
c verification time: 1.327 seconds
